%%% static parameters %%%
timespan = 1;
Clients_N = [500];
Demand_W = [15];
Lt0 = [4];
Lt1 = [4];
SS_ = [0.85];
DS_D = [20];
K = [200];
MA = [500];
HC = [0.05];
%%% dynamic parameters %%%
lost_ratio_sales_ret_th = 0.00016464058875739673;
lost_ratio_sales_ret_w = 46;
lost_ratio_sales_dis_th = 0.0004059340891118638;
lost_ratio_sales_dis_w = 45;
lost_ratio_sales_fac_th = 0.0004441979401677403;
lost_ratio_sales_fac_w = 7;
stock_customer_MA_mean_relative_th = 0.5390022827568964;
stock_customer_MA_mean_relative_w = 9;
stock_distributor_MA_mean_relative_th = 0.7803357651881662;
stock_distributor_MA_mean_relative_w = 23;
stock_retailer_MA_mean_relative_th = 0.27681596010997067;
stock_retailer_MA_mean_relative_w = 4;
stock_factory_MA_mean_relative_th = 0.1851660209044318;
stock_factory_MA_mean_relative_w = 47;
